data;

param n:= 8;

set T := 2 4 5;

param: E: c := 
	1 2 4
	1 4 1
	1 7 1
	2 3 3
	2 4 5
	3 5 1
	3 6 1
	3 7 1
	4 5 5
	5 6 1
	5 8 1
	6 8 1
	7 8 1;

# For plotting
param x :=
1 10
2 30
3 50
4 40
5 50
6 70 
7 30
8 50;

param y :=
1 30
2 30
3 20
4 40
5 30
6 20 
7 10
8 10;